
Gurobi 12.0.2 (win64) logging started Fri Jun  6 10:09:35 2025

Set parameter LogFile to value "C:\Ioana\_uni\honours\slp\algorithm\Main_files\results\others\prox_tubules_new\Task_004_Sample001_irr_gurobi.log"
Gurobi Optimizer version 12.0.2 build v12.0.2rc0 (win64 - Windows 11.0 (26100.2))

CPU model: Intel(R) Core(TM) Ultra 5 125H, instruction set [SSE2|AVX|AVX2]
Thread count: 14 physical cores, 18 logical processors, using up to 18 threads

Non-default parameters:
TimeLimit  2200

Optimize a model with 47658 rows, 34811 columns and 147858 nonzeros
Model fingerprint: 0x10423e94
Variable types: 17417 continuous, 17394 integer (17394 binary)
Coefficient statistics:
  Matrix range     [1e-04, 8e+04]
  Objective range  [1e-04, 1e+01]
  Bounds range     [1e+00, 1e+03]
  RHS range        [1e+00, 1e+00]
Presolve removed 31252 rows and 21846 columns
Presolve time: 0.32s
Presolved: 16406 rows, 12965 columns, 54597 nonzeros
Variable types: 6419 continuous, 6546 integer (6546 binary)

Root relaxation: objective 9.140068e-03, 2598 iterations, 0.20 seconds (0.35 work units)

    Nodes    |    Current Node    |     Objective Bounds      |     Work
 Expl Unexpl |  Obj  Depth IntInf | Incumbent    BestBd   Gap | It/Node Time

     0     0    0.00914    0   16          -    0.00914      -     -    0s
H    0     0                       6.3400966    0.00914   100%     -    0s
     0     0    1.87147    0   43    6.34010    1.87147  70.5%     -    1s
     0     0    1.89216    0   35    6.34010    1.89216  70.2%     -    1s
     0     0    3.45228    0   40    6.34010    3.45228  45.5%     -    1s
     0     0    3.46164    0   40    6.34010    3.46164  45.4%     -    1s
     0     0    4.25363    0   40    6.34010    4.25363  32.9%     -    1s
     0     0    4.25363    0   41    6.34010    4.25363  32.9%     -    1s
     0     0    4.72168    0   26    6.34010    4.72168  25.5%     -    1s
     0     0    4.72168    0   15    6.34010    4.72168  25.5%     -    1s
     0     0    5.47067    0   25    6.34010    5.47067  13.7%     -    1s
     0     0    5.47084    0   26    6.34010    5.47084  13.7%     -    1s
     0     0    5.50611    0   25    6.34010    5.50611  13.2%     -    1s
     0     0    5.51041    0   30    6.34010    5.51041  13.1%     -    1s
     0     0    5.51042    0   30    6.34010    5.51042  13.1%     -    1s
     0     0    5.60465    0   24    6.34010    5.60465  11.6%     -    2s
     0     0    5.60465    0    6    6.34010    5.60465  11.6%     -    2s
     0     0     cutoff    0         6.34010    6.34010  0.00%     -    2s

Cutting planes:
  Gomory: 4
  Cover: 3
  MIR: 13
  Flow cover: 19
  Flow path: 3
  Network: 6
  Relax-and-lift: 2

Explored 1 nodes (6647 simplex iterations) in 2.04 seconds (2.22 work units)
Thread count was 18 (of 18 available processors)

Solution count 1: 6.3401 

Optimal solution found (tolerance 1.00e-04)
Best objective 6.340096552795e+00, best bound 6.340096552795e+00, gap 0.0000%

Gurobi 12.0.2 (win64) logging started Fri Jun  6 14:25:41 2025

Set parameter LogFile to value "C:\Ioana\_uni\honours\slp\algorithm\Main_files\results\others\prox_tubules_new\Task_004_Sample001_irr_gurobi.log"
Gurobi Optimizer version 12.0.2 build v12.0.2rc0 (win64 - Windows 11.0 (26100.2))

CPU model: Intel(R) Core(TM) Ultra 5 125H, instruction set [SSE2|AVX|AVX2]
Thread count: 14 physical cores, 18 logical processors, using up to 18 threads

Non-default parameters:
TimeLimit  2200

Optimize a model with 47658 rows, 34811 columns and 147858 nonzeros
Model fingerprint: 0x10423e94
Variable types: 17417 continuous, 17394 integer (17394 binary)
Coefficient statistics:
  Matrix range     [1e-04, 8e+04]
  Objective range  [1e-04, 1e+01]
  Bounds range     [1e+00, 1e+03]
  RHS range        [1e+00, 1e+00]
Presolve removed 31252 rows and 21846 columns
Presolve time: 0.32s
Presolved: 16406 rows, 12965 columns, 54597 nonzeros
Variable types: 6419 continuous, 6546 integer (6546 binary)

Root relaxation: objective 9.140068e-03, 2598 iterations, 0.19 seconds (0.35 work units)

    Nodes    |    Current Node    |     Objective Bounds      |     Work
 Expl Unexpl |  Obj  Depth IntInf | Incumbent    BestBd   Gap | It/Node Time

     0     0    0.00914    0   16          -    0.00914      -     -    0s
H    0     0                       6.3400966    0.00914   100%     -    0s
     0     0    1.87147    0   43    6.34010    1.87147  70.5%     -    1s
     0     0    1.89216    0   35    6.34010    1.89216  70.2%     -    1s
     0     0    3.45228    0   40    6.34010    3.45228  45.5%     -    1s
     0     0    3.46164    0   40    6.34010    3.46164  45.4%     -    1s
     0     0    4.25363    0   40    6.34010    4.25363  32.9%     -    1s
     0     0    4.25363    0   41    6.34010    4.25363  32.9%     -    1s
     0     0    4.72168    0   26    6.34010    4.72168  25.5%     -    1s
     0     0    4.72168    0   15    6.34010    4.72168  25.5%     -    1s
     0     0    5.47067    0   25    6.34010    5.47067  13.7%     -    1s
     0     0    5.47084    0   26    6.34010    5.47084  13.7%     -    1s
     0     0    5.50611    0   25    6.34010    5.50611  13.2%     -    1s
     0     0    5.51041    0   30    6.34010    5.51041  13.1%     -    1s
     0     0    5.51042    0   30    6.34010    5.51042  13.1%     -    1s
     0     0    5.60465    0   24    6.34010    5.60465  11.6%     -    2s
     0     0    5.60465    0    6    6.34010    5.60465  11.6%     -    2s
     0     0     cutoff    0         6.34010    6.34010  0.00%     -    2s

Cutting planes:
  Gomory: 4
  Cover: 3
  MIR: 13
  Flow cover: 19
  Flow path: 3
  Network: 6
  Relax-and-lift: 2

Explored 1 nodes (6647 simplex iterations) in 2.06 seconds (2.22 work units)
Thread count was 18 (of 18 available processors)

Solution count 1: 6.3401 

Optimal solution found (tolerance 1.00e-04)
Best objective 6.340096552795e+00, best bound 6.340096552795e+00, gap 0.0000%
